z1,z2,z3,nondominated
2,8,4,0
8,3,7,0
7,3,8,0
2,7,1,0
3,8,1,0
8,2,9,0
8,2,7,0
7,1,10,0
1,7,3,0
9,2,7,0
10,3,8,0
1,7,3,0
1,10,2,0
1,8,1,0
3,7,1,0
4,8,2,0
7,3,8,0
2,8,3,0
7,3,10,0
8,4,9,0
10,3,10,0
7,2,8,0
3,8,4,0
4,8,2,0
9,1,9,0
3,10,1,0
8,2,7,0
7,4,9,0
8,3,9,0
4,9,4,0
4,9,3,0
8,1,8,0
10,3,9,0
8,1,9,0
1,7,1,0
1,7,3,0
1,1,1,0
1,1,1,0
1,1,1,0
1,1,1,0
1,1,1,0
1,1,1,0
